BAYES
325
2 2 2 2 2 2 2 2 2 2 2 2 2 2 2 2 2 2 2 2 2 2 2 2 2 2 2 2 2 2 2 2 2 2 2 2 2 2 2 2 2 2 2 2 2 2 2 2 2 2 2 2 2 2 2 2 2 2 2 2 2 2 2 2 2 2 2 2 2 2 2 2 2 2 2 2 2 2 2 2 2 2 2 2 2 2 2 2 2 2 2 2 2 2 2 2 2 2 2 2 2 2 2 2 2 2 2 2 2 2 2 2 2 2 2 2 2 2 2 2 2 2 2 2 2 2 2 2 2 2 2 2 2 2 2 2 2 2 2 2 2 2 2 2 2 2 2 2 2 2 2 2 2 2 2 2 2 2 2 2 2 2 2 2 2 2 2 2 2 2 2 2 2 2 2 2 2 2 2 2 2 2 2 2 2 2 2 2 2 2 2 2 2 2 2 2 2 2 2 2 2 2 2 2 2 2 2 2 2 2 2 2 2 2 2 2 2 2 2 2 2 2 2 2 2 2 2 2 2 2 2 2 2 2 2 2 2 2 2 2 2 2 2 2 2 2 2 2 2 2 2 2 2 2 2 2 2 2 2 2 2 2 2 2 2 2 2 2 2 2 2 2 2 2 2 2 2 2 2 2 2 2 2 2 2 2 2 2 2 2 2 2 2 2 2 2 2 2 2 2 2 2 2 2 2 2 2 2 2 2 2 2 2 2 2 2 2 2 2 2 2 2 2 2 2
325
1	0
2	0	1
2	0	2
2	1	3
3	1	2	4
2	2	5
2	3	6
3	3	4	7
3	4	5	8
2	5	9
2	6	10
3	6	7	11
3	7	8	12
3	8	9	13
2	9	14
2	10	15
3	10	11	16
3	11	12	17
3	12	13	18
3	13	14	19
2	14	20
2	15	21
3	15	16	22
3	16	17	23
3	17	18	24
3	18	19	25
3	19	20	26
2	20	27
2	21	28
3	21	22	29
3	22	23	30
3	23	24	31
3	24	25	32
3	25	26	33
3	26	27	34
2	27	35
2	28	36
3	28	29	37
3	29	30	38
3	30	31	39
3	31	32	40
3	32	33	41
3	33	34	42
3	34	35	43
2	35	44
2	36	45
3	36	37	46
3	37	38	47
3	38	39	48
3	39	40	49
3	40	41	50
3	41	42	51
3	42	43	52
3	43	44	53
2	44	54
2	45	55
3	45	46	56
3	46	47	57
3	47	48	58
3	48	49	59
3	49	50	60
3	50	51	61
3	51	52	62
3	52	53	63
3	53	54	64
2	54	65
2	55	66
3	55	56	67
3	56	57	68
3	57	58	69
3	58	59	70
3	59	60	71
3	60	61	72
3	61	62	73
3	62	63	74
3	63	64	75
3	64	65	76
2	65	77
2	66	78
3	66	67	79
3	67	68	80
3	68	69	81
3	69	70	82
3	70	71	83
3	71	72	84
3	72	73	85
3	73	74	86
3	74	75	87
3	75	76	88
3	76	77	89
2	77	90
2	78	91
3	78	79	92
3	79	80	93
3	80	81	94
3	81	82	95
3	82	83	96
3	83	84	97
3	84	85	98
3	85	86	99
3	86	87	100
3	87	88	101
3	88	89	102
3	89	90	103
2	90	104
2	91	105
3	91	92	106
3	92	93	107
3	93	94	108
3	94	95	109
3	95	96	110
3	96	97	111
3	97	98	112
3	98	99	113
3	99	100	114
3	100	101	115
3	101	102	116
3	102	103	117
3	103	104	118
2	104	119
2	105	120
3	105	106	121
3	106	107	122
3	107	108	123
3	108	109	124
3	109	110	125
3	110	111	126
3	111	112	127
3	112	113	128
3	113	114	129
3	114	115	130
3	115	116	131
3	116	117	132
3	117	118	133
3	118	119	134
2	119	135
2	120	136
3	120	121	137
3	121	122	138
3	122	123	139
3	123	124	140
3	124	125	141
3	125	126	142
3	126	127	143
3	127	128	144
3	128	129	145
3	129	130	146
3	130	131	147
3	131	132	148
3	132	133	149
3	133	134	150
3	134	135	151
2	135	152
2	136	153
3	136	137	154
3	137	138	155
3	138	139	156
3	139	140	157
3	140	141	158
3	141	142	159
3	142	143	160
3	143	144	161
3	144	145	162
3	145	146	163
3	146	147	164
3	147	148	165
3	148	149	166
3	149	150	167
3	150	151	168
3	151	152	169
2	152	170
2	153	171
3	153	154	172
3	154	155	173
3	155	156	174
3	156	157	175
3	157	158	176
3	158	159	177
3	159	160	178
3	160	161	179
3	161	162	180
3	162	163	181
3	163	164	182
3	164	165	183
3	165	166	184
3	166	167	185
3	167	168	186
3	168	169	187
3	169	170	188
2	170	189
2	171	190
3	171	172	191
3	172	173	192
3	173	174	193
3	174	175	194
3	175	176	195
3	176	177	196
3	177	178	197
3	178	179	198
3	179	180	199
3	180	181	200
3	181	182	201
3	182	183	202
3	183	184	203
3	184	185	204
3	185	186	205
3	186	187	206
3	187	188	207
3	188	189	208
2	189	209
2	190	210
3	190	191	211
3	191	192	212
3	192	193	213
3	193	194	214
3	194	195	215
3	195	196	216
3	196	197	217
3	197	198	218
3	198	199	219
3	199	200	220
3	200	201	221
3	201	202	222
3	202	203	223
3	203	204	224
3	204	205	225
3	205	206	226
3	206	207	227
3	207	208	228
3	208	209	229
2	209	230
2	210	231
3	210	211	232
3	211	212	233
3	212	213	234
3	213	214	235
3	214	215	236
3	215	216	237
3	216	217	238
3	217	218	239
3	218	219	240
3	219	220	241
3	220	221	242
3	221	222	243
3	222	223	244
3	223	224	245
3	224	225	246
3	225	226	247
3	226	227	248
3	227	228	249
3	228	229	250
3	229	230	251
2	230	252
2	231	253
3	231	232	254
3	232	233	255
3	233	234	256
3	234	235	257
3	235	236	258
3	236	237	259
3	237	238	260
3	238	239	261
3	239	240	262
3	240	241	263
3	241	242	264
3	242	243	265
3	243	244	266
3	244	245	267
3	245	246	268
3	246	247	269
3	247	248	270
3	248	249	271
3	249	250	272
3	250	251	273
3	251	252	274
2	252	275
2	253	276
3	253	254	277
3	254	255	278
3	255	256	279
3	256	257	280
3	257	258	281
3	258	259	282
3	259	260	283
3	260	261	284
3	261	262	285
3	262	263	286
3	263	264	287
3	264	265	288
3	265	266	289
3	266	267	290
3	267	268	291
3	268	269	292
3	269	270	293
3	270	271	294
3	271	272	295
3	272	273	296
3	273	274	297
3	274	275	298
2	275	299
2	276	300
3	276	277	301
3	277	278	302
3	278	279	303
3	279	280	304
3	280	281	305
3	281	282	306
3	282	283	307
3	283	284	308
3	284	285	309
3	285	286	310
3	286	287	311
3	287	288	312
3	288	289	313
3	289	290	314
3	290	291	315
3	291	292	316
3	292	293	317
3	293	294	318
3	294	295	319
3	295	296	320
3	296	297	321
3	297	298	322
3	298	299	323
2	299	324

2
	0.77572000	0.22428000

4
	0.47499800	0.52500200
	0.01000000	0.99000000

4
	0.01000000	0.99000000
	0.99000000	0.01000000

4
	0.01000000	0.99000000
	0.99000000	0.01000000

8
	0.01000000	0.99000000
	0.01000000	0.99000000
	0.99000000	0.01000000
	0.01000000	0.99000000

4
	0.57465100	0.42534900
	0.47914100	0.52085900

4
	0.89053000	0.10947000
	0.98901300	0.01098730

8
	0.99000000	0.01000000
	0.99000000	0.01000000
	0.01000000	0.99000000
	0.01000000	0.99000000

8
	0.56906500	0.43093500
	0.23077000	0.76923000
	0.63677100	0.36322900
	0.97558700	0.02441330

4
	0.04238580	0.95761400
	0.41068200	0.58931800

4
	0.99000000	0.01000000
	0.01000000	0.99000000

8
	0.99000000	0.01000000
	0.99000000	0.01000000
	0.01000000	0.99000000
	0.01000000	0.99000000

8
	0.73996200	0.26003800
	0.71785400	0.28214600
	0.34804300	0.65195700
	0.44374900	0.55625100

8
	0.01000000	0.99000000
	0.01000000	0.99000000
	0.99000000	0.01000000
	0.99000000	0.01000000

4
	0.79584000	0.20416000
	0.69576600	0.30423400

4
	0.61400300	0.38599700
	0.43172100	0.56827900

8
	0.99000000	0.01000000
	0.99000000	0.01000000
	0.01000000	0.99000000
	0.01000000	0.99000000

8
	0.99000000	0.01000000
	0.99000000	0.01000000
	0.99000000	0.01000000
	0.01000000	0.99000000

8
	0.68981400	0.31018600
	0.12593000	0.87407000
	0.68357700	0.31642300
	0.96481500	0.03518470

8
	0.01000000	0.99000000
	0.01000000	0.99000000
	0.01000000	0.99000000
	0.99000000	0.01000000

4
	0.54080300	0.45919700
	0.68219900	0.31780100

4
	0.99000000	0.01000000
	0.01000000	0.99000000

8
	0.99000000	0.01000000
	0.01000000	0.99000000
	0.01000000	0.99000000
	0.99000000	0.01000000

8
	0.01000000	0.99000000
	0.01000000	0.99000000
	0.99000000	0.01000000
	0.01000000	0.99000000

8
	0.99000000	0.01000000
	0.01000000	0.99000000
	0.99000000	0.01000000
	0.99000000	0.01000000

8
	0.41103700	0.58896300
	0.20529400	0.79470600
	0.61794300	0.38205700
	0.73375400	0.26624600

8
	0.01000000	0.99000000
	0.99000000	0.01000000
	0.01000000	0.99000000
	0.01000000	0.99000000

4
	0.01000000	0.99000000
	0.99000000	0.01000000

4
	0.99000000	0.01000000
	0.01000000	0.99000000

8
	0.99000000	0.01000000
	0.99000000	0.01000000
	0.01000000	0.99000000
	0.01000000	0.99000000

8
	0.99000000	0.01000000
	0.01000000	0.99000000
	0.01000000	0.99000000
	0.99000000	0.01000000

8
	0.01000000	0.99000000
	0.99000000	0.01000000
	0.99000000	0.01000000
	0.01000000	0.99000000

8
	0.99000000	0.01000000
	0.01000000	0.99000000
	0.99000000	0.01000000
	0.99000000	0.01000000

8
	0.01000000	0.99000000
	0.99000000	0.01000000
	0.01000000	0.99000000
	0.01000000	0.99000000

8
	0.01000000	0.99000000
	0.01000000	0.99000000
	0.01000000	0.99000000
	0.99000000	0.01000000

4
	0.99000000	0.01000000
	0.01000000	0.99000000

4
	0.01000000	0.99000000
	0.99000000	0.01000000

8
	0.01000000	0.99000000
	0.99000000	0.01000000
	0.01000000	0.99000000
	0.99000000	0.01000000

8
	0.99000000	0.01000000
	0.99000000	0.01000000
	0.01000000	0.99000000
	0.99000000	0.01000000

8
	0.01000000	0.99000000
	0.01000000	0.99000000
	0.99000000	0.01000000
	0.99000000	0.01000000

8
	0.69124800	0.30875200
	0.30615400	0.69384600
	0.71720200	0.28279800
	0.88289300	0.11710700

8
	0.99000000	0.01000000
	0.99000000	0.01000000
	0.01000000	0.99000000
	0.99000000	0.01000000

8
	0.01000000	0.99000000
	0.01000000	0.99000000
	0.99000000	0.01000000
	0.99000000	0.01000000

8
	0.01000000	0.99000000
	0.01000000	0.99000000
	0.99000000	0.01000000
	0.99000000	0.01000000

4
	0.99000000	0.01000000
	0.01000000	0.99000000

4
	0.99000000	0.01000000
	0.01000000	0.99000000

8
	0.26443600	0.73556400
	0.74107300	0.25892700
	0.52059100	0.47940900
	0.88663700	0.11336300

8
	0.73235700	0.26764300
	0.53168200	0.46831800
	0.14204000	0.85796000
	0.06114640	0.93885400

8
	0.99000000	0.01000000
	0.01000000	0.99000000
	0.99000000	0.01000000
	0.01000000	0.99000000

8
	0.01000000	0.99000000
	0.01000000	0.99000000
	0.99000000	0.01000000
	0.01000000	0.99000000

8
	0.01000000	0.99000000
	0.99000000	0.01000000
	0.99000000	0.01000000
	0.99000000	0.01000000

8
	0.99000000	0.01000000
	0.01000000	0.99000000
	0.01000000	0.99000000
	0.99000000	0.01000000

8
	0.01000000	0.99000000
	0.01000000	0.99000000
	0.99000000	0.01000000
	0.99000000	0.01000000

8
	0.01000000	0.99000000
	0.99000000	0.01000000
	0.99000000	0.01000000
	0.99000000	0.01000000

4
	0.01000000	0.99000000
	0.99000000	0.01000000

4
	0.99000000	0.01000000
	0.01000000	0.99000000

8
	0.99000000	0.01000000
	0.01000000	0.99000000
	0.99000000	0.01000000
	0.01000000	0.99000000

8
	0.99000000	0.01000000
	0.01000000	0.99000000
	0.01000000	0.99000000
	0.01000000	0.99000000

8
	0.01000000	0.99000000
	0.99000000	0.01000000
	0.01000000	0.99000000
	0.01000000	0.99000000

8
	0.01000000	0.99000000
	0.99000000	0.01000000
	0.01000000	0.99000000
	0.99000000	0.01000000

8
	0.01000000	0.99000000
	0.01000000	0.99000000
	0.99000000	0.01000000
	0.99000000	0.01000000

8
	0.01000000	0.99000000
	0.99000000	0.01000000
	0.99000000	0.01000000
	0.99000000	0.01000000

8
	0.01000000	0.99000000
	0.01000000	0.99000000
	0.99000000	0.01000000
	0.01000000	0.99000000

8
	0.99000000	0.01000000
	0.99000000	0.01000000
	0.99000000	0.01000000
	0.01000000	0.99000000

8
	0.99000000	0.01000000
	0.99000000	0.01000000
	0.99000000	0.01000000
	0.01000000	0.99000000

4
	0.99000000	0.01000000
	0.01000000	0.99000000

4
	0.08788980	0.91211000
	0.50695100	0.49304900

8
	0.01000000	0.99000000
	0.99000000	0.01000000
	0.01000000	0.99000000
	0.01000000	0.99000000

8
	0.92330200	0.07669780
	0.85871400	0.14128600
	0.97979000	0.02021020
	0.32477500	0.67522500

8
	0.01000000	0.99000000
	0.99000000	0.01000000
	0.99000000	0.01000000
	0.99000000	0.01000000

8
	0.99000000	0.01000000
	0.01000000	0.99000000
	0.01000000	0.99000000
	0.01000000	0.99000000

8
	0.99000000	0.01000000
	0.99000000	0.01000000
	0.01000000	0.99000000
	0.99000000	0.01000000

8
	0.36494800	0.63505200
	0.80611000	0.19389000
	0.37211600	0.62788400
	0.79666900	0.20333100

8
	0.01000000	0.99000000
	0.01000000	0.99000000
	0.99000000	0.01000000
	0.99000000	0.01000000

8
	0.01000000	0.99000000
	0.99000000	0.01000000
	0.99000000	0.01000000
	0.01000000	0.99000000

8
	0.99000000	0.01000000
	0.99000000	0.01000000
	0.01000000	0.99000000
	0.99000000	0.01000000

8
	0.01000000	0.99000000
	0.01000000	0.99000000
	0.01000000	0.99000000
	0.99000000	0.01000000

4
	0.37574000	0.62426000
	0.04742800	0.95257200

4
	0.99000000	0.01000000
	0.01000000	0.99000000

8
	0.99000000	0.01000000
	0.99000000	0.01000000
	0.01000000	0.99000000
	0.01000000	0.99000000

8
	0.11911300	0.88088700
	0.36716300	0.63283700
	0.33345100	0.66654900
	0.66312700	0.33687300

8
	0.01000000	0.99000000
	0.01000000	0.99000000
	0.99000000	0.01000000
	0.01000000	0.99000000

8
	0.99000000	0.01000000
	0.99000000	0.01000000
	0.01000000	0.99000000
	0.01000000	0.99000000

8
	0.42196200	0.57803800
	0.42540000	0.57460000
	0.48966400	0.51033600
	0.98601100	0.01398870

8
	0.99000000	0.01000000
	0.01000000	0.99000000
	0.01000000	0.99000000
	0.01000000	0.99000000

8
	0.12475600	0.87524400
	0.65816100	0.34183900
	0.21178300	0.78821700
	0.01957790	0.98042200

8
	0.99000000	0.01000000
	0.99000000	0.01000000
	0.01000000	0.99000000
	0.99000000	0.01000000

8
	0.43618400	0.56381600
	0.79508600	0.20491400
	0.63344500	0.36655500
	0.90578100	0.09421930

8
	0.36018500	0.63981500
	0.77355400	0.22644600
	0.39694500	0.60305500
	0.09393950	0.90606100

8
	0.99000000	0.01000000
	0.01000000	0.99000000
	0.99000000	0.01000000
	0.99000000	0.01000000

4
	0.99000000	0.01000000
	0.01000000	0.99000000

4
	0.01000000	0.99000000
	0.99000000	0.01000000

8
	0.99000000	0.01000000
	0.99000000	0.01000000
	0.01000000	0.99000000
	0.99000000	0.01000000

8
	0.68674600	0.31325400
	0.76969400	0.23030600
	0.17027900	0.82972100
	0.47492800	0.52507200

8
	0.99000000	0.01000000
	0.99000000	0.01000000
	0.01000000	0.99000000
	0.99000000	0.01000000

8
	0.99000000	0.01000000
	0.99000000	0.01000000
	0.99000000	0.01000000
	0.01000000	0.99000000

8
	0.99000000	0.01000000
	0.01000000	0.99000000
	0.99000000	0.01000000
	0.99000000	0.01000000

8
	0.01000000	0.99000000
	0.99000000	0.01000000
	0.99000000	0.01000000
	0.99000000	0.01000000

8
	0.99000000	0.01000000
	0.99000000	0.01000000
	0.01000000	0.99000000
	0.99000000	0.01000000

8
	0.01000000	0.99000000
	0.01000000	0.99000000
	0.01000000	0.99000000
	0.99000000	0.01000000

8
	0.99000000	0.01000000
	0.01000000	0.99000000
	0.01000000	0.99000000
	0.99000000	0.01000000

8
	0.01000000	0.99000000
	0.99000000	0.01000000
	0.01000000	0.99000000
	0.99000000	0.01000000

8
	0.23444400	0.76555600
	0.64767000	0.35233000
	0.35917000	0.64083000
	0.68389600	0.31610400

8
	0.54167300	0.45832700
	0.54091100	0.45908900
	0.92225400	0.07774570
	0.51819500	0.48180500

4
	0.51670100	0.48329900
	0.41912600	0.58087400

4
	0.10227300	0.89772700
	0.09555890	0.90444100

8
	0.88365800	0.11634200
	0.54170600	0.45829400
	0.60787700	0.39212300
	0.82033400	0.17966600

8
	0.99000000	0.01000000
	0.01000000	0.99000000
	0.01000000	0.99000000
	0.01000000	0.99000000

8
	0.01000000	0.99000000
	0.01000000	0.99000000
	0.01000000	0.99000000
	0.99000000	0.01000000

8
	0.01000000	0.99000000
	0.01000000	0.99000000
	0.01000000	0.99000000
	0.99000000	0.01000000

8
	0.99000000	0.01000000
	0.99000000	0.01000000
	0.01000000	0.99000000
	0.01000000	0.99000000

8
	0.99000000	0.01000000
	0.01000000	0.99000000
	0.01000000	0.99000000
	0.01000000	0.99000000

8
	0.99000000	0.01000000
	0.99000000	0.01000000
	0.01000000	0.99000000
	0.99000000	0.01000000

8
	0.99000000	0.01000000
	0.01000000	0.99000000
	0.99000000	0.01000000
	0.01000000	0.99000000

8
	0.01000000	0.99000000
	0.01000000	0.99000000
	0.01000000	0.99000000
	0.99000000	0.01000000

8
	0.99000000	0.01000000
	0.01000000	0.99000000
	0.99000000	0.01000000
	0.99000000	0.01000000

8
	0.99000000	0.01000000
	0.01000000	0.99000000
	0.01000000	0.99000000
	0.01000000	0.99000000

8
	0.99000000	0.01000000
	0.01000000	0.99000000
	0.01000000	0.99000000
	0.01000000	0.99000000

8
	0.99000000	0.01000000
	0.01000000	0.99000000
	0.99000000	0.01000000
	0.99000000	0.01000000

4
	0.01000000	0.99000000
	0.99000000	0.01000000

4
	0.99000000	0.01000000
	0.01000000	0.99000000

8
	0.01000000	0.99000000
	0.99000000	0.01000000
	0.01000000	0.99000000
	0.01000000	0.99000000

8
	0.01000000	0.99000000
	0.99000000	0.01000000
	0.01000000	0.99000000
	0.01000000	0.99000000

8
	0.99000000	0.01000000
	0.99000000	0.01000000
	0.01000000	0.99000000
	0.01000000	0.99000000

8
	0.01000000	0.99000000
	0.99000000	0.01000000
	0.01000000	0.99000000
	0.99000000	0.01000000

8
	0.01000000	0.99000000
	0.01000000	0.99000000
	0.99000000	0.01000000
	0.99000000	0.01000000

8
	0.01000000	0.99000000
	0.01000000	0.99000000
	0.99000000	0.01000000
	0.99000000	0.01000000

8
	0.99000000	0.01000000
	0.01000000	0.99000000
	0.99000000	0.01000000
	0.99000000	0.01000000

8
	0.01000000	0.99000000
	0.01000000	0.99000000
	0.99000000	0.01000000
	0.99000000	0.01000000

8
	0.99000000	0.01000000
	0.99000000	0.01000000
	0.99000000	0.01000000
	0.01000000	0.99000000

8
	0.01000000	0.99000000
	0.01000000	0.99000000
	0.01000000	0.99000000
	0.99000000	0.01000000

8
	0.11232300	0.88767700
	0.85561400	0.14438600
	0.49614900	0.50385100
	0.61479600	0.38520400

8
	0.99000000	0.01000000
	0.99000000	0.01000000
	0.99000000	0.01000000
	0.01000000	0.99000000

8
	0.99000000	0.01000000
	0.99000000	0.01000000
	0.99000000	0.01000000
	0.01000000	0.99000000

8
	0.99000000	0.01000000
	0.01000000	0.99000000
	0.01000000	0.99000000
	0.01000000	0.99000000

4
	0.63881400	0.36118600
	0.40652100	0.59347900

4
	0.15554600	0.84445400
	0.32104700	0.67895300

8
	0.01000000	0.99000000
	0.01000000	0.99000000
	0.99000000	0.01000000
	0.01000000	0.99000000

8
	0.99000000	0.01000000
	0.99000000	0.01000000
	0.01000000	0.99000000
	0.99000000	0.01000000

8
	0.36599700	0.63400300
	0.82156100	0.17843900
	0.31716100	0.68283900
	0.59903600	0.40096400

8
	0.99000000	0.01000000
	0.01000000	0.99000000
	0.99000000	0.01000000
	0.01000000	0.99000000

8
	0.99000000	0.01000000
	0.01000000	0.99000000
	0.01000000	0.99000000
	0.99000000	0.01000000

8
	0.99000000	0.01000000
	0.99000000	0.01000000
	0.99000000	0.01000000
	0.01000000	0.99000000

8
	0.01000000	0.99000000
	0.01000000	0.99000000
	0.01000000	0.99000000
	0.99000000	0.01000000

8
	0.99000000	0.01000000
	0.01000000	0.99000000
	0.99000000	0.01000000
	0.99000000	0.01000000

8
	0.01000000	0.99000000
	0.99000000	0.01000000
	0.01000000	0.99000000
	0.01000000	0.99000000

8
	0.99000000	0.01000000
	0.01000000	0.99000000
	0.01000000	0.99000000
	0.99000000	0.01000000

8
	0.19622900	0.80377100
	0.68443700	0.31556300
	0.57409900	0.42590100
	0.44261900	0.55738100

8
	0.01000000	0.99000000
	0.01000000	0.99000000
	0.01000000	0.99000000
	0.99000000	0.01000000

8
	0.99000000	0.01000000
	0.01000000	0.99000000
	0.01000000	0.99000000
	0.01000000	0.99000000

8
	0.64018100	0.35981900
	0.22963100	0.77036900
	0.30500600	0.69499400
	0.55381200	0.44618800

8
	0.99000000	0.01000000
	0.99000000	0.01000000
	0.01000000	0.99000000
	0.99000000	0.01000000

4
	0.99000000	0.01000000
	0.01000000	0.99000000

4
	0.15500400	0.84499600
	0.08568990	0.91431000

8
	0.01000000	0.99000000
	0.01000000	0.99000000
	0.99000000	0.01000000
	0.99000000	0.01000000

8
	0.01000000	0.99000000
	0.01000000	0.99000000
	0.01000000	0.99000000
	0.99000000	0.01000000

8
	0.99000000	0.01000000
	0.99000000	0.01000000
	0.01000000	0.99000000
	0.01000000	0.99000000

8
	0.99000000	0.01000000
	0.01000000	0.99000000
	0.99000000	0.01000000
	0.01000000	0.99000000

8
	0.99000000	0.01000000
	0.99000000	0.01000000
	0.99000000	0.01000000
	0.01000000	0.99000000

8
	0.01000000	0.99000000
	0.99000000	0.01000000
	0.01000000	0.99000000
	0.01000000	0.99000000

8
	0.99000000	0.01000000
	0.01000000	0.99000000
	0.01000000	0.99000000
	0.99000000	0.01000000

8
	0.01000000	0.99000000
	0.01000000	0.99000000
	0.01000000	0.99000000
	0.99000000	0.01000000

8
	0.01000000	0.99000000
	0.01000000	0.99000000
	0.01000000	0.99000000
	0.99000000	0.01000000

8
	0.01000000	0.99000000
	0.01000000	0.99000000
	0.99000000	0.01000000
	0.01000000	0.99000000

8
	0.88316100	0.11683900
	0.36057200	0.63942800
	0.11046300	0.88953700
	0.98888200	0.01111840

8
	0.01000000	0.99000000
	0.99000000	0.01000000
	0.01000000	0.99000000
	0.01000000	0.99000000

8
	0.99000000	0.01000000
	0.99000000	0.01000000
	0.01000000	0.99000000
	0.99000000	0.01000000

8
	0.99000000	0.01000000
	0.01000000	0.99000000
	0.01000000	0.99000000
	0.01000000	0.99000000

8
	0.01000000	0.99000000
	0.01000000	0.99000000
	0.99000000	0.01000000
	0.01000000	0.99000000

8
	0.01985920	0.98014100
	0.86298700	0.13701300
	0.96547700	0.03452290
	0.08793340	0.91206700

4
	0.99000000	0.01000000
	0.01000000	0.99000000

4
	0.01000000	0.99000000
	0.99000000	0.01000000

8
	0.56073800	0.43926200
	0.45877000	0.54123000
	0.77120900	0.22879100
	0.37781600	0.62218400

8
	0.99000000	0.01000000
	0.01000000	0.99000000
	0.99000000	0.01000000
	0.99000000	0.01000000

8
	0.01000000	0.99000000
	0.73394900	0.26605100
	0.99000000	0.01000000
	0.99000000	0.01000000

8
	0.17408600	0.82591400
	0.43636000	0.56364000
	0.40898400	0.59101600
	0.45204700	0.54795300

8
	0.99000000	0.01000000
	0.01000000	0.99000000
	0.99000000	0.01000000
	0.99000000	0.01000000

8
	0.99000000	0.01000000
	0.01000000	0.99000000
	0.99000000	0.01000000
	0.01000000	0.99000000

8
	0.99000000	0.01000000
	0.01000000	0.99000000
	0.01000000	0.99000000
	0.01000000	0.99000000

8
	0.01000000	0.99000000
	0.99000000	0.01000000
	0.99000000	0.01000000
	0.01000000	0.99000000

8
	0.72704000	0.27296000
	0.12368900	0.87631100
	0.92105700	0.07894260
	0.60573800	0.39426200

8
	0.01000000	0.99000000
	0.01000000	0.99000000
	0.01000000	0.99000000
	0.99000000	0.01000000

8
	0.98790000	0.01210000
	0.74783100	0.25216900
	0.40686900	0.59313100
	0.47756400	0.52243600

8
	0.21025600	0.78974400
	0.27005800	0.72994200
	0.35547800	0.64452200
	0.41521000	0.58479000

8
	0.99000000	0.01000000
	0.01000000	0.99000000
	0.01000000	0.99000000
	0.01000000	0.99000000

8
	0.01000000	0.99000000
	0.01000000	0.99000000
	0.99000000	0.01000000
	0.99000000	0.01000000

8
	0.01000000	0.99000000
	0.99000000	0.01000000
	0.01000000	0.99000000
	0.99000000	0.01000000

8
	0.01000000	0.99000000
	0.99000000	0.01000000
	0.99000000	0.01000000
	0.99000000	0.01000000

8
	0.99000000	0.01000000
	0.99000000	0.01000000
	0.01000000	0.99000000
	0.01000000	0.99000000

4
	0.99000000	0.01000000
	0.01000000	0.99000000

4
	0.99000000	0.01000000
	0.01000000	0.99000000

8
	0.99000000	0.01000000
	0.01000000	0.99000000
	0.99000000	0.01000000
	0.99000000	0.01000000

8
	0.84495800	0.15504200
	0.07622660	0.92377300
	0.96917700	0.03082250
	0.87968000	0.12032000

8
	0.21244300	0.78755700
	0.99000000	0.01000000
	0.58210800	0.41789200
	0.60146600	0.39853400

8
	0.99000000	0.01000000
	0.01000000	0.99000000
	0.99000000	0.01000000
	0.99000000	0.01000000

8
	0.39625700	0.60374300
	0.27837100	0.72162900
	0.75208600	0.24791400
	0.11770900	0.88229100

8
	0.99000000	0.01000000
	0.99000000	0.01000000
	0.99000000	0.01000000
	0.01000000	0.99000000

8
	0.99000000	0.01000000
	0.01000000	0.99000000
	0.01000000	0.99000000
	0.01000000	0.99000000

8
	0.01000000	0.99000000
	0.99000000	0.01000000
	0.99000000	0.01000000
	0.01000000	0.99000000

8
	0.01000000	0.99000000
	0.99000000	0.01000000
	0.01000000	0.99000000
	0.01000000	0.99000000

8
	0.99000000	0.01000000
	0.01000000	0.99000000
	0.99000000	0.01000000
	0.01000000	0.99000000

8
	0.99000000	0.01000000
	0.01000000	0.99000000
	0.01000000	0.99000000
	0.99000000	0.01000000

8
	0.01000000	0.99000000
	0.01000000	0.99000000
	0.01000000	0.99000000
	0.99000000	0.01000000

8
	0.01000000	0.99000000
	0.99000000	0.01000000
	0.01000000	0.99000000
	0.01000000	0.99000000

8
	0.47241600	0.52758400
	0.70846000	0.29154000
	0.26381200	0.73618800
	0.05044100	0.94955900

8
	0.01000000	0.99000000
	0.01000000	0.99000000
	0.01000000	0.99000000
	0.99000000	0.01000000

8
	0.78077700	0.21922300
	0.49229400	0.50770600
	0.19895300	0.80104700
	0.82605000	0.17395000

8
	0.32175700	0.67824300
	0.41615600	0.58384400
	0.62152000	0.37848000
	0.68092700	0.31907300

8
	0.99000000	0.01000000
	0.99000000	0.01000000
	0.01000000	0.99000000
	0.99000000	0.01000000

4
	0.01000000	0.99000000
	0.99000000	0.01000000

4
	0.01000000	0.99000000
	0.99000000	0.01000000

8
	0.01000000	0.99000000
	0.99000000	0.01000000
	0.01000000	0.99000000
	0.01000000	0.99000000

8
	0.99000000	0.01000000
	0.01000000	0.99000000
	0.01000000	0.99000000
	0.99000000	0.01000000

8
	0.01000000	0.99000000
	0.01000000	0.99000000
	0.01000000	0.99000000
	0.99000000	0.01000000

8
	0.01000000	0.99000000
	0.01000000	0.99000000
	0.99000000	0.01000000
	0.01000000	0.99000000

8
	0.99000000	0.01000000
	0.99000000	0.01000000
	0.01000000	0.99000000
	0.01000000	0.99000000

8
	0.01000000	0.99000000
	0.99000000	0.01000000
	0.99000000	0.01000000
	0.99000000	0.01000000

8
	0.99000000	0.01000000
	0.01000000	0.99000000
	0.99000000	0.01000000
	0.99000000	0.01000000

8
	0.01000000	0.99000000
	0.01000000	0.99000000
	0.99000000	0.01000000
	0.01000000	0.99000000

8
	0.99000000	0.01000000
	0.99000000	0.01000000
	0.99000000	0.01000000
	0.01000000	0.99000000

8
	0.88073300	0.11926700
	0.31573300	0.68426700
	0.23353600	0.76646400
	0.01466320	0.98533700

8
	0.81370700	0.18629300
	0.06415360	0.93584600
	0.84657500	0.15342500
	0.51095400	0.48904600

8
	0.01000000	0.99000000
	0.99000000	0.01000000
	0.01000000	0.99000000
	0.99000000	0.01000000

8
	0.99000000	0.01000000
	0.01000000	0.99000000
	0.99000000	0.01000000
	0.99000000	0.01000000

8
	0.99000000	0.01000000
	0.99000000	0.01000000
	0.99000000	0.01000000
	0.01000000	0.99000000

8
	0.01000000	0.99000000
	0.01000000	0.99000000
	0.01000000	0.99000000
	0.99000000	0.01000000

8
	0.01000000	0.99000000
	0.01000000	0.99000000
	0.99000000	0.01000000
	0.99000000	0.01000000

8
	0.01000000	0.99000000
	0.99000000	0.01000000
	0.01000000	0.99000000
	0.01000000	0.99000000

8
	0.01000000	0.99000000
	0.01000000	0.99000000
	0.99000000	0.01000000
	0.01000000	0.99000000

8
	0.01000000	0.99000000
	0.01000000	0.99000000
	0.01000000	0.99000000
	0.99000000	0.01000000

4
	0.99000000	0.01000000
	0.01000000	0.99000000

4
	0.99000000	0.01000000
	0.01000000	0.99000000

8
	0.54927100	0.45072900
	0.26739000	0.73261000
	0.86442700	0.13557300
	0.05996180	0.94003800

8
	0.73478700	0.26521300
	0.20802800	0.79197200
	0.98820900	0.01179090
	0.81254200	0.18745800

8
	0.99000000	0.01000000
	0.01000000	0.99000000
	0.99000000	0.01000000
	0.01000000	0.99000000

8
	0.01000000	0.99000000
	0.01000000	0.99000000
	0.99000000	0.01000000
	0.01000000	0.99000000

8
	0.99000000	0.01000000
	0.99000000	0.01000000
	0.01000000	0.99000000
	0.01000000	0.99000000

8
	0.99000000	0.01000000
	0.01000000	0.99000000
	0.01000000	0.99000000
	0.01000000	0.99000000

8
	0.99000000	0.01000000
	0.99000000	0.01000000
	0.01000000	0.99000000
	0.99000000	0.01000000

8
	0.99000000	0.01000000
	0.01000000	0.99000000
	0.99000000	0.01000000
	0.99000000	0.01000000

8
	0.99000000	0.01000000
	0.01000000	0.99000000
	0.01000000	0.99000000
	0.01000000	0.99000000

8
	0.99000000	0.01000000
	0.01000000	0.99000000
	0.01000000	0.99000000
	0.99000000	0.01000000

8
	0.01000000	0.99000000
	0.99000000	0.01000000
	0.01000000	0.99000000
	0.99000000	0.01000000

8
	0.99000000	0.01000000
	0.99000000	0.01000000
	0.01000000	0.99000000
	0.01000000	0.99000000

8
	0.01000000	0.99000000
	0.99000000	0.01000000
	0.99000000	0.01000000
	0.99000000	0.01000000

8
	0.99000000	0.01000000
	0.99000000	0.01000000
	0.01000000	0.99000000
	0.01000000	0.99000000

8
	0.99000000	0.01000000
	0.99000000	0.01000000
	0.99000000	0.01000000
	0.01000000	0.99000000

8
	0.99000000	0.01000000
	0.99000000	0.01000000
	0.99000000	0.01000000
	0.01000000	0.99000000

8
	0.01000000	0.99000000
	0.01000000	0.99000000
	0.01000000	0.99000000
	0.99000000	0.01000000

8
	0.99000000	0.01000000
	0.99000000	0.01000000
	0.99000000	0.01000000
	0.01000000	0.99000000

8
	0.99000000	0.01000000
	0.99000000	0.01000000
	0.99000000	0.01000000
	0.01000000	0.99000000

8
	0.35993000	0.64007000
	0.56355100	0.43644900
	0.23235900	0.76764100
	0.96604700	0.03395280

4
	0.01000000	0.99000000
	0.99000000	0.01000000

4
	0.01000000	0.99000000
	0.99000000	0.01000000

8
	0.32447400	0.67552600
	0.58582500	0.41417500
	0.82696600	0.17303400
	0.17060400	0.82939600

8
	0.99000000	0.01000000
	0.01000000	0.99000000
	0.99000000	0.01000000
	0.01000000	0.99000000

8
	0.01000000	0.99000000
	0.99000000	0.01000000
	0.01000000	0.99000000
	0.01000000	0.99000000

8
	0.99000000	0.01000000
	0.99000000	0.01000000
	0.01000000	0.99000000
	0.99000000	0.01000000

8
	0.99000000	0.01000000
	0.01000000	0.99000000
	0.01000000	0.99000000
	0.99000000	0.01000000

8
	0.01000000	0.99000000
	0.99000000	0.01000000
	0.01000000	0.99000000
	0.99000000	0.01000000

8
	0.01000000	0.99000000
	0.99000000	0.01000000
	0.01000000	0.99000000
	0.01000000	0.99000000

8
	0.01000000	0.99000000
	0.99000000	0.01000000
	0.01000000	0.99000000
	0.01000000	0.99000000

8
	0.99000000	0.01000000
	0.01000000	0.99000000
	0.01000000	0.99000000
	0.01000000	0.99000000

8
	0.79540500	0.20459500
	0.50916600	0.49083400
	0.33929600	0.66070400
	0.42686400	0.57313600

8
	0.99000000	0.01000000
	0.99000000	0.01000000
	0.01000000	0.99000000
	0.99000000	0.01000000

8
	0.01000000	0.99000000
	0.99000000	0.01000000
	0.99000000	0.01000000
	0.99000000	0.01000000

8
	0.99000000	0.01000000
	0.01000000	0.99000000
	0.01000000	0.99000000
	0.99000000	0.01000000

8
	0.99000000	0.01000000
	0.01000000	0.99000000
	0.01000000	0.99000000
	0.01000000	0.99000000

8
	0.01000000	0.99000000
	0.99000000	0.01000000
	0.99000000	0.01000000
	0.99000000	0.01000000

8
	0.99000000	0.01000000
	0.01000000	0.99000000
	0.99000000	0.01000000
	0.99000000	0.01000000

8
	0.28753300	0.71246700
	0.30056200	0.69943800
	0.52297300	0.47702700
	0.73015300	0.26984700

8
	0.01000000	0.99000000
	0.99000000	0.01000000
	0.99000000	0.01000000
	0.01000000	0.99000000

8
	0.99000000	0.01000000
	0.01000000	0.99000000
	0.01000000	0.99000000
	0.99000000	0.01000000

8
	0.48473700	0.51526300
	0.69569900	0.30430100
	0.32250400	0.67749600
	0.53947000	0.46053000

8
	0.99000000	0.01000000
	0.01000000	0.99000000
	0.01000000	0.99000000
	0.01000000	0.99000000

4
	0.99000000	0.01000000
	0.01000000	0.99000000

4
	0.99000000	0.01000000
	0.01000000	0.99000000

8
	0.99000000	0.01000000
	0.99000000	0.01000000
	0.99000000	0.01000000
	0.01000000	0.99000000

8
	0.99000000	0.01000000
	0.99000000	0.01000000
	0.01000000	0.99000000
	0.01000000	0.99000000

8
	0.99000000	0.01000000
	0.01000000	0.99000000
	0.99000000	0.01000000
	0.01000000	0.99000000

8
	0.99000000	0.01000000
	0.01000000	0.99000000
	0.99000000	0.01000000
	0.99000000	0.01000000

8
	0.22092000	0.77908000
	0.03341600	0.96658400
	0.62151500	0.37848500
	0.04437710	0.95562300

8
	0.99000000	0.01000000
	0.99000000	0.01000000
	0.01000000	0.99000000
	0.99000000	0.01000000

8
	0.33061200	0.66938800
	0.48170800	0.51829200
	0.91859400	0.08140580
	0.56042400	0.43957600

8
	0.22692700	0.77307300
	0.81278000	0.18722000
	0.79212900	0.20787100
	0.18950400	0.81049600

8
	0.67377400	0.32622600
	0.34907200	0.65092800
	0.92947400	0.07052580
	0.58876100	0.41123900

8
	0.99000000	0.01000000
	0.01000000	0.99000000
	0.01000000	0.99000000
	0.01000000	0.99000000

8
	0.01000000	0.99000000
	0.01000000	0.99000000
	0.01000000	0.99000000
	0.99000000	0.01000000

8
	0.01000000	0.99000000
	0.99000000	0.01000000
	0.99000000	0.01000000
	0.99000000	0.01000000

8
	0.44663000	0.55337000
	0.89616000	0.10384000
	0.21137600	0.78862400
	0.56273300	0.43726700

8
	0.25529900	0.74470100
	0.50037700	0.49962300
	0.49186500	0.50813500
	0.51102800	0.48897200

8
	0.01000000	0.99000000
	0.99000000	0.01000000
	0.01000000	0.99000000
	0.01000000	0.99000000

8
	0.99000000	0.01000000
	0.99000000	0.01000000
	0.99000000	0.01000000
	0.01000000	0.99000000

8
	0.01000000	0.99000000
	0.99000000	0.01000000
	0.01000000	0.99000000
	0.99000000	0.01000000

8
	0.01000000	0.99000000
	0.01000000	0.99000000
	0.01000000	0.99000000
	0.99000000	0.01000000

8
	0.99000000	0.01000000
	0.01000000	0.99000000
	0.99000000	0.01000000
	0.01000000	0.99000000

8
	0.95494700	0.04505330
	0.04485650	0.95514300
	0.86206300	0.13793700
	0.90714400	0.09285570

8
	0.99000000	0.01000000
	0.01000000	0.99000000
	0.99000000	0.01000000
	0.01000000	0.99000000

8
	0.99000000	0.01000000
	0.01000000	0.99000000
	0.99000000	0.01000000
	0.01000000	0.99000000

4
	0.01000000	0.99000000
	0.99000000	0.01000000

4
	0.99000000	0.01000000
	0.01000000	0.99000000

8
	0.80108900	0.19891100
	0.69542600	0.30457400
	0.83866500	0.16133500
	0.92733700	0.07266280

8
	0.01000000	0.99000000
	0.01000000	0.99000000
	0.01000000	0.99000000
	0.99000000	0.01000000

8
	0.01000000	0.99000000
	0.01000000	0.99000000
	0.99000000	0.01000000
	0.99000000	0.01000000

8
	0.99000000	0.01000000
	0.01000000	0.99000000
	0.01000000	0.99000000
	0.99000000	0.01000000

8
	0.99000000	0.01000000
	0.01000000	0.99000000
	0.01000000	0.99000000
	0.99000000	0.01000000

8
	0.62659000	0.37341000
	0.64676400	0.35323600
	0.46127200	0.53872800
	0.07767940	0.92232100

8
	0.99000000	0.01000000
	0.01000000	0.99000000
	0.01000000	0.99000000
	0.01000000	0.99000000

8
	0.01000000	0.99000000
	0.99000000	0.01000000
	0.99000000	0.01000000
	0.01000000	0.99000000

8
	0.79930600	0.20069400
	0.92345300	0.07654740
	0.77396700	0.22603300
	0.78985000	0.21015000

8
	0.91678100	0.08321890
	0.76284800	0.23715200
	0.19811400	0.80188600
	0.32576500	0.67423500

8
	0.01000000	0.99000000
	0.01000000	0.99000000
	0.99000000	0.01000000
	0.99000000	0.01000000

8
	0.99000000	0.01000000
	0.99000000	0.01000000
	0.01000000	0.99000000
	0.99000000	0.01000000

8
	0.99000000	0.01000000
	0.01000000	0.99000000
	0.01000000	0.99000000
	0.99000000	0.01000000

8
	0.01000000	0.99000000
	0.01000000	0.99000000
	0.01000000	0.99000000
	0.99000000	0.01000000

8
	0.99000000	0.01000000
	0.99000000	0.01000000
	0.01000000	0.99000000
	0.99000000	0.01000000

8
	0.99000000	0.01000000
	0.01000000	0.99000000
	0.01000000	0.99000000
	0.01000000	0.99000000

8
	0.80362400	0.19637600
	0.57597000	0.42403000
	0.19214500	0.80785500
	0.28118800	0.71881200

8
	0.54017700	0.45982300
	0.88451100	0.11548900
	0.23700400	0.76299600
	0.89565500	0.10434500

8
	0.38859900	0.61140100
	0.40435400	0.59564600
	0.60454400	0.39545600
	0.23726100	0.76273900

8
	0.01000000	0.99000000
	0.01000000	0.99000000
	0.99000000	0.01000000
	0.99000000	0.01000000

8
	0.01000000	0.99000000
	0.99000000	0.01000000
	0.01000000	0.99000000
	0.01000000	0.99000000

8
	0.01000000	0.99000000
	0.99000000	0.01000000
	0.01000000	0.99000000
	0.01000000	0.99000000

8
	0.01000000	0.99000000
	0.99000000	0.01000000
	0.01000000	0.99000000
	0.99000000	0.01000000

4
	0.01000000	0.99000000
	0.99000000	0.01000000
